min: c;

c = 3.18633693088543 * u2_t7_h3 + 3.51893900213272 * u2_t7_h4 + 3.23091888701609 * u2_t2_h5 + 3.23091888701609 * u2_t3_h5 + 3.23091888701609 * u2_t7_h5 + 3.80439804722484 * u2_t2_h6 + 3.80439804722484 * u2_t3_h6 + 3.80439804722484 * u2_t4_h6 + 3.80439804722484 * u2_t7_h6 + 3.80439804722484 * u2_t10_h6 + 4.15113786639136 * u2_t2_h7 + 4.15113786639136 * u2_t3_h7 + 4.15113786639136 * u2_t4_h7 + 4.15113786639136 * u2_t7_h7 + 4.15113786639136 * u2_t10_h7 + 5.10695160637244 * u2_t2_h8 + 5.10695160637244 * u2_t3_h8 + 5.10695160637244 * u2_t4_h8 + 5.10695160637244 * u2_t7_h8 + 5.10695160637244 * u2_t10_h8 + 4.74002297037331 * u2_t2_h9 + 4.74002297037331 * u2_t3_h9 + 4.74002297037331 * u2_t4_h9 + 4.74002297037331 * u2_t7_h9 + 4.74002297037331 * u2_t10_h9 + 5.27659808020211 * u2_t2_h10 + 5.27659808020211 * u2_t3_h10 + 5.27659808020211 * u2_t4_h10 + 5.27659808020211 * u2_t7_h10 + 5.27659808020211 * u2_t10_h10 + 4.04781415506191 * u2_t1_h11 + 4.04781415506191 * u2_t2_h11 + 4.04781415506191 * u2_t3_h11 + 4.04781415506191 * u2_t4_h11 + 4.04781415506191 * u2_t7_h11 + 4.04781415506191 * u2_t10_h11 + 6.15898041469568 * u2_t1_h12 + 6.15898041469568 * u2_t3_h12 + 6.15898041469568 * u2_t4_h12 + 6.15898041469568 * u2_t7_h12 + 4.59539717063176 * u2_t1_h13 + 4.59539717063176 * u2_t3_h13 + 4.59539717063176 * u2_t4_h13 + 4.59539717063176 * u2_t7_h13 + 4.59539717063176 * u2_t9_h13 + 5.87413479368636 * u2_t1_h14 + 5.87413479368636 * u2_t3_h14 + 5.87413479368636 * u2_t4_h14 + 5.87413479368636 * u2_t7_h14 + 5.87413479368636 * u2_t9_h14 + 5.79268295623399 * u2_t1_h15 + 5.79268295623399 * u2_t3_h15 + 5.79268295623399 * u2_t4_h15 + 5.79268295623399 * u2_t7_h15 + 5.79268295623399 * u2_t9_h15 + 5.48859205119102 * u2_t1_h16 + 5.48859205119102 * u2_t3_h16 + 5.48859205119102 * u2_t4_h16 + 5.48859205119102 * u2_t7_h16 + 5.48859205119102 * u2_t9_h16 + 6.59080911853294 * u2_t1_h17 + 6.59080911853294 * u2_t3_h17 + 6.59080911853294 * u2_t4_h17 + 6.59080911853294 * u2_t7_h17 + 6.59080911853294 * u2_t9_h17 + 6.1123845143503 * u2_t1_h18 + 6.1123845143503 * u2_t3_h18 + 6.1123845143503 * u2_t4_h18 + 6.1123845143503 * u2_t6_h18 + 6.1123845143503 * u2_t7_h18 + 5.52835571347566 * u2_t1_h19 + 5.52835571347566 * u2_t3_h19 + 5.52835571347566 * u2_t4_h19 + 5.52835571347566 * u2_t5_h19 + 5.52835571347566 * u2_t6_h19 + 5.52835571347566 * u2_t7_h19 + 5.15056000969758 * u2_t1_h20 + 5.15056000969758 * u2_t3_h20 + 5.15056000969758 * u2_t4_h20 + 5.15056000969758 * u2_t6_h20 + 5.15056000969758 * u2_t7_h20 + 4.84073788949785 * u2_t1_h21 + 4.84073788949785 * u2_t3_h21 + 4.84073788949785 * u2_t6_h21 + 4.84073788949785 * u2_t7_h21 + 4.84073788949785 * u2_t8_h21 + 6.05679210902429 * u2_t1_h22 + 6.05679210902429 * u2_t3_h22 + 6.05679210902429 * u2_t7_h22 + 6.05679210902429 * u2_t8_h22 + 5.78778752944181 * u2_t3_h23 + 5.78778752944181 * u2_t7_h23 + 5.78778752944181 * u2_t8_h23;
0 <= u2_t1_h11 <= 1;
0 <= u2_t1_h12 <= 1;
0 <= u2_t1_h13 <= 1;
0 <= u2_t1_h14 <= 1;
0 <= u2_t1_h15 <= 1;
0 <= u2_t1_h16 <= 1;
0 <= u2_t1_h17 <= 1;
0 <= u2_t1_h18 <= 1;
0 <= u2_t1_h19 <= 1;
0 <= u2_t1_h20 <= 1;
0 <= u2_t1_h21 <= 1;
0 <= u2_t1_h22 <= 1;
u2_t1_h11 + u2_t1_h12 + u2_t1_h13 + u2_t1_h14 + u2_t1_h15 + u2_t1_h16 + u2_t1_h17 + u2_t1_h18 + u2_t1_h19 + u2_t1_h20 + u2_t1_h21 + u2_t1_h22 = 2;
0 <= u2_t2_h5 <= 1;
0 <= u2_t2_h6 <= 1;
0 <= u2_t2_h7 <= 1;
0 <= u2_t2_h8 <= 1;
0 <= u2_t2_h9 <= 1;
0 <= u2_t2_h10 <= 1;
0 <= u2_t2_h11 <= 1;
u2_t2_h5 + u2_t2_h6 + u2_t2_h7 + u2_t2_h8 + u2_t2_h9 + u2_t2_h10 + u2_t2_h11 = 2;
0 <= u2_t3_h5 <= 1;
0 <= u2_t3_h6 <= 1;
0 <= u2_t3_h7 <= 1;
0 <= u2_t3_h8 <= 1;
0 <= u2_t3_h9 <= 1;
0 <= u2_t3_h10 <= 1;
0 <= u2_t3_h11 <= 1;
0 <= u2_t3_h12 <= 1;
0 <= u2_t3_h13 <= 1;
0 <= u2_t3_h14 <= 1;
0 <= u2_t3_h15 <= 1;
0 <= u2_t3_h16 <= 1;
0 <= u2_t3_h17 <= 1;
0 <= u2_t3_h18 <= 1;
0 <= u2_t3_h19 <= 1;
0 <= u2_t3_h20 <= 1;
0 <= u2_t3_h21 <= 1;
0 <= u2_t3_h22 <= 1;
0 <= u2_t3_h23 <= 1;
u2_t3_h5 + u2_t3_h6 + u2_t3_h7 + u2_t3_h8 + u2_t3_h9 + u2_t3_h10 + u2_t3_h11 + u2_t3_h12 + u2_t3_h13 + u2_t3_h14 + u2_t3_h15 + u2_t3_h16 + u2_t3_h17 + u2_t3_h18 + u2_t3_h19 + u2_t3_h20 + u2_t3_h21 + u2_t3_h22 + u2_t3_h23 = 1;
0 <= u2_t4_h6 <= 1;
0 <= u2_t4_h7 <= 1;
0 <= u2_t4_h8 <= 1;
0 <= u2_t4_h9 <= 1;
0 <= u2_t4_h10 <= 1;
0 <= u2_t4_h11 <= 1;
0 <= u2_t4_h12 <= 1;
0 <= u2_t4_h13 <= 1;
0 <= u2_t4_h14 <= 1;
0 <= u2_t4_h15 <= 1;
0 <= u2_t4_h16 <= 1;
0 <= u2_t4_h17 <= 1;
0 <= u2_t4_h18 <= 1;
0 <= u2_t4_h19 <= 1;
0 <= u2_t4_h20 <= 1;
u2_t4_h6 + u2_t4_h7 + u2_t4_h8 + u2_t4_h9 + u2_t4_h10 + u2_t4_h11 + u2_t4_h12 + u2_t4_h13 + u2_t4_h14 + u2_t4_h15 + u2_t4_h16 + u2_t4_h17 + u2_t4_h18 + u2_t4_h19 + u2_t4_h20 = 3;
0 <= u2_t5_h19 <= 1;
u2_t5_h19 = 1;
0 <= u2_t6_h18 <= 1;
0 <= u2_t6_h19 <= 1;
0 <= u2_t6_h20 <= 1;
0 <= u2_t6_h21 <= 1;
u2_t6_h18 + u2_t6_h19 + u2_t6_h20 + u2_t6_h21 = 2;
0 <= u2_t7_h3 <= 1;
0 <= u2_t7_h4 <= 1;
0 <= u2_t7_h5 <= 1;
0 <= u2_t7_h6 <= 1;
0 <= u2_t7_h7 <= 1;
0 <= u2_t7_h8 <= 1;
0 <= u2_t7_h9 <= 1;
0 <= u2_t7_h10 <= 1;
0 <= u2_t7_h11 <= 1;
0 <= u2_t7_h12 <= 1;
0 <= u2_t7_h13 <= 1;
0 <= u2_t7_h14 <= 1;
0 <= u2_t7_h15 <= 1;
0 <= u2_t7_h16 <= 1;
0 <= u2_t7_h17 <= 1;
0 <= u2_t7_h18 <= 1;
0 <= u2_t7_h19 <= 1;
0 <= u2_t7_h20 <= 1;
0 <= u2_t7_h21 <= 1;
0 <= u2_t7_h22 <= 1;
0 <= u2_t7_h23 <= 1;
u2_t7_h3 + u2_t7_h4 + u2_t7_h5 + u2_t7_h6 + u2_t7_h7 + u2_t7_h8 + u2_t7_h9 + u2_t7_h10 + u2_t7_h11 + u2_t7_h12 + u2_t7_h13 + u2_t7_h14 + u2_t7_h15 + u2_t7_h16 + u2_t7_h17 + u2_t7_h18 + u2_t7_h19 + u2_t7_h20 + u2_t7_h21 + u2_t7_h22 + u2_t7_h23 = 3;
0 <= u2_t8_h21 <= 1;
0 <= u2_t8_h22 <= 1;
0 <= u2_t8_h23 <= 1;
u2_t8_h21 + u2_t8_h22 + u2_t8_h23 = 2;
0 <= u2_t9_h13 <= 1;
0 <= u2_t9_h14 <= 1;
0 <= u2_t9_h15 <= 1;
0 <= u2_t9_h16 <= 1;
0 <= u2_t9_h17 <= 1;
u2_t9_h13 + u2_t9_h14 + u2_t9_h15 + u2_t9_h16 + u2_t9_h17 = 1;
0 <= u2_t10_h6 <= 1;
0 <= u2_t10_h7 <= 1;
0 <= u2_t10_h8 <= 1;
0 <= u2_t10_h9 <= 1;
0 <= u2_t10_h10 <= 1;
0 <= u2_t10_h11 <= 1;
u2_t10_h6 + u2_t10_h7 + u2_t10_h8 + u2_t10_h9 + u2_t10_h10 + u2_t10_h11 = 2;
